CLT08
Position Depot: Random
Horizon for Depot: Large
Position of customers: Cluster
Distribution of the demand: Medium
Width of time windows: Tight
Distribution of the service: Small

VEHICLE 
NUMBER 	 CAPACITY 
 5 	 	 195 
 
CUSTOMER
CUST NO. 	 XCOORD.  	 YCOORD. 	 DEMAND 	 READY TIME 	 DUE DATE 	 SERVICE TIME 
 0 	 	 79 	 	 20 	 	 0 	 	 0 	 	 3687 	 	 0 
  1 	 	 972 	 	 137 	 	 6 	 	 928 	 	 1025 	 	 74 
  2 	 	 841 	 	 125 	 	 75 	 	 1413 	 	 1534 	 	 77 
  3 	 	 24 	 	 504 	 	 82 	 	 2956 	 	 3105 	 	 59 
  4 	 	 313 	 	 615 	 	 93 	 	 2624 	 	 2681 	 	 87 
  5 	 	 197 	 	 594 	 	 7 	 	 2690 	 	 2818 	 	 51 
  6 	 	 715 	 	 490 	 	 6 	 	 800 	 	 869 	 	 76 
  7 	 	 902 	 	 15 	 	 1 	 	 1747 	 	 1894 	 	 81 
  8 	 	 942 	 	 59 	 	 10 	 	 3557 	 	 3687 	 	 71 
  9 	 	 944 	 	 49 	 	 73 	 	 2580 	 	 2641 	 	 99 
  10 	 	 741 	 	 465 	 	 8 	 	 1666 	 	 1730 	 	 56 
  11 	 	 811 	 	 81 	 	 6 	 	 3197 	 	 3267 	 	 81 
  12 	 	 915 	 	 153 	 	 6 	 	 3200 	 	 3301 	 	 62 
  13 	 	 892 	 	 164 	 	 9 	 	 1092 	 	 1142 	 	 96 
  14 	 	 860 	 	 71 	 	 10 	 	 2553 	 	 2712 	 	 58 
  15 	 	 722 	 	 209 	 	 5 	 	 2663 	 	 2738 	 	 82 
  16 	 	 349 	 	 539 	 	 6 	 	 519 	 	 643 	 	 74 
  17 	 	 917 	 	 105 	 	 9 	 	 1996 	 	 2119 	 	 74 
  18 	 	 860 	 	 168 	 	 58 	 	 2077 	 	 2204 	 	 96 
  19 	 	 28 	 	 511 	 	 3 	 	 2383 	 	 2533 	 	 63 
  20 	 	 909 	 	 177 	 	 7 	 	 874 	 	 929 	 	 53 
  21 	 	 251 	 	 424 	 	 2 	 	 1863 	 	 1996 	 	 84 
  22 	 	 877 	 	 93 	 	 1 	 	 1663 	 	 1814 	 	 56 
  23 	 	 47 	 	 285 	 	 10 	 	 1883 	 	 1989 	 	 53 
  24 	 	 825 	 	 196 	 	 10 	 	 770 	 	 843 	 	 70 
  25 	 	 630 	 	 429 	 	 4 	 	 2524 	 	 2578 	 	 97 
  26 	 	 981 	 	 138 	 	 8 	 	 2224 	 	 2300 	 	 62 
  27 	 	 107 	 	 479 	 	 52 	 	 332 	 	 505 	 	 67 
  28 	 	 221 	 	 611 	 	 95 	 	 695 	 	 827 	 	 92 
  29 	 	 952 	 	 270 	 	 54 	 	 1223 	 	 1312 	 	 57 
  30 	 	 632 	 	 469 	 	 10 	 	 2355 	 	 2474 	 	 95 
  31 	 	 664 	 	 558 	 	 10 	 	 768 	 	 874 	 	 95 
  32 	 	 881 	 	 142 	 	 4 	 	 2071 	 	 2222 	 	 73 
  33 	 	 68 	 	 651 	 	 8 	 	 511 	 	 694 	 	 66 
  34 	 	 835 	 	 79 	 	 2 	 	 676 	 	 834 	 	 57 
  35 	 	 243 	 	 582 	 	 80 	 	 2635 	 	 2731 	 	 79 
  36 	 	 57 	 	 500 	 	 1 	 	 2785 	 	 2984 	 	 56 
  37 	 	 68 	 	 570 	 	 5 	 	 722 	 	 832 	 	 63 
  38 	 	 196 	 	 523 	 	 9 	 	 1024 	 	 1191 	 	 94 
  39 	 	 994 	 	 191 	 	 9 	 	 1073 	 	 1213 	 	 92 
  40 	 	 986 	 	 139 	 	 97 	 	 1029 	 	 1219 	 	 53 
  41 	 	 948 	 	 63 	 	 7 	 	 3083 	 	 3154 	 	 54 
  42 	 	 326 	 	 675 	 	 72 	 	 1438 	 	 1580 	 	 90 
  43 	 	 236 	 	 610 	 	 8 	 	 639 	 	 749 	 	 92 
  44 	 	 715 	 	 495 	 	 10 	 	 1804 	 	 1906 	 	 54 
  45 	 	 812 	 	 127 	 	 6 	 	 2309 	 	 2467 	 	 72 
  46 	 	 969 	 	 153 	 	 8 	 	 2760 	 	 2933 	 	 70 
  47 	 	 989 	 	 162 	 	 3 	 	 851 	 	 1013 	 	 54 
  48 	 	 744 	 	 497 	 	 3 	 	 846 	 	 945 	 	 78 
  49 	 	 116 	 	 489 	 	 9 	 	 2992 	 	 3080 	 	 77 
  50 	 	 750 	 	 486 	 	 6 	 	 3207 	 	 3272 	 	 84 
 